c randN150_K4_R0.2_L30_40.cnf
p cnf 150 30
-45 -43 6 -115 0
104 67 -117 -9 0
122 -53 -61 135 0
96 66 84 111 0
-80 -95 -111 -27 0
50 12 -76 -139 0
80 137 -87 -108 0
-86 -119 138 -101 0
-92 -75 -58 -105 0
132 60 -114 -65 0
94 -133 -45 15 0
32 130 -125 47 0
-112 -62 18 -130 0
107 -14 -41 103 0
34 42 69 95 0
56 26 75 134 0
90 -12 -115 -25 0
105 116 44 -2 0
-103 -21 -47 85 0
-47 21 5 133 0
140 -78 -148 -130 0
146 52 149 46 0
129 -13 150 47 0
-120 2 -11 -50 0
-110 -28 53 -75 0
8 66 19 124 0
128 -5 44 109 0
-120 91 -44 -121 0
-8 65 122 80 0
-48 -31 -114 127 0
